p cnf 10 50
9 10 -7 0
-5 -8 -1 0
7 -1 -5 0
1 -5 -6 0
3 4 2 0
5 -9 10 0
7 4 -6 0
9 -7 2 0
5 3 8 0
-6 3 -4 0
-6 -2 10 0
1 -9 10 0
7 10 9 0
-9 -5 -8 0
5 -7 -4 0
8 9 -2 0
3 -4 -2 0
-1 3 -2 0
6 9 4 0
10 -6 2 0
9 -2 -3 0
8 -1 5 0
1 5 10 0
7 10 -6 0
-4 10 2 0
-2 -6 5 0
5 10 9 0
-10 5 7 0
8 -10 -7 0
-5 -9 3 0
-7 5 2 0
-4 -1 -3 0
5 1 -6 0
6 -9 2 0
-6 -2 -9 0
-9 1 -7 0
6 -4 5 0
-7 -6 -10 0
-4 -6 1 0
-7 6 -10 0
-2 -3 -5 0
-3 2 9 0
2 -7 -10 0
5 -6 10 0
8 -10 -7 0
-6 -5 8 0
5 1 -9 0
-7 5 -3 0
1 -8 7 0
-3 2 5 0